p cnf 10 50
-4 -1 7 0
2 -6 -8 0
-5 10 -2 0
9 8 3 0
7 8 6 0
-3 -2 -10 0
-4 -8 6 0
10 -6 -8 0
-1 -10 -6 0
-2 -7 5 0
-9 -2 6 0
-10 8 -1 0
-6 7 8 0
-8 -4 6 0
-6 -3 4 0
-4 8 -3 0
-6 9 -4 0
-2 -7 -5 0
5 4 -10 0
-1 -3 6 0
1 3 6 0
7 -3 -9 0
7 4 -10 0
6 10 5 0
8 4 -7 0
-1 -6 9 0
2 -6 -9 0
3 4 -9 0
1 -6 -4 0
-5 -8 9 0
3 -7 -5 0
-7 -9 8 0
4 -10 -5 0
-1 -10 -2 0
-3 -7 10 0
1 -3 2 0
5 -2 -9 0
9 6 4 0
4 6 1 0
1 10 6 0
3 -6 8 0
4 6 9 0
8 -10 4 0
-6 9 4 0
-9 1 -10 0
-8 10 1 0
-8 5 -2 0
-7 -9 -2 0
-8 7 -10 0
9 2 10 0